SECTION Graph
Nodes 294
Edges 618
E 1 36 7
E 1 255 14
E 2 3 14
E 2 256 14
E 3 4 1
E 3 11 23
E 4 12 23
E 5 6 1
E 5 173 4
E 6 7 14
E 6 175 4
E 7 8 1
E 7 179 4
E 8 181 4
E 8 185 7
E 9 10 1
E 9 13 23
E 9 40 7
E 9 255 9
E 10 11 14
E 10 14 23
E 10 256 9
E 11 12 1
E 11 15 23
E 12 16 23
E 13 14 1
E 13 17 23
E 13 44 7
E 14 15 14
E 14 18 23
E 15 16 1
E 15 19 23
E 16 20 23
E 17 18 1
E 17 48 7
E 17 224 23
E 18 19 14
E 18 227 23
E 19 20 1
E 19 234 23
E 20 236 23
E 21 22 1
E 21 208 21
E 21 218 7
E 21 224 2
E 22 23 14
E 22 210 21
E 22 227 2
E 23 24 1
E 23 220 21
E 23 234 2
E 24 222 21
E 24 236 2
E 25 26 1
E 25 198 7
E 25 208 4
E 26 27 14
E 26 210 4
E 27 28 1
E 27 220 4
E 28 222 4
E 29 30 1
E 29 33 23
E 29 64 7
E 30 31 14
E 30 34 23
E 31 32 1
E 31 35 23
E 32 36 23
E 33 34 1
E 33 68 7
E 33 251 14
E 34 35 14
E 34 252 14
E 35 36 1
E 35 253 14
E 36 254 14
E 37 38 1
E 37 41 23
E 37 246 7
E 37 251 9
E 38 39 14
E 38 42 23
E 38 252 9
E 39 40 1
E 39 43 23
E 39 253 9
E 40 44 23
E 40 254 9
E 41 42 1
E 41 45 23
E 41 235 7
E 42 43 14
E 42 46 23
E 43 44 1
E 43 47 23
E 44 48 23
E 45 46 1
E 45 49 23
E 45 221 7
E 46 47 14
E 46 50 23
E 47 48 1
E 47 51 23
E 48 52 23
E 49 50 1
E 49 200 7
E 49 205 2
E 50 51 14
E 50 206 2
E 51 52 1
E 51 217 2
E 52 218 2
E 52 224 7
E 53 54 1
E 53 182 7
E 53 186 4
E 53 201 16
E 54 55 14
E 54 188 4
E 54 202 16
E 55 56 1
E 55 196 4
E 55 212 16
E 56 198 4
E 56 208 7
E 56 214 16
E 57 58 1
E 57 169 7
E 57 183 16
E 58 59 14
E 58 184 16
E 59 60 1
E 59 192 16
E 60 194 16
E 61 62 1
E 61 65 23
E 61 86 7
E 62 63 14
E 62 66 23
E 63 64 1
E 63 67 23
E 64 68 23
E 65 66 1
E 65 90 7
E 65 242 14
E 66 244 14
E 66 249 6
E 67 68 1
E 67 247 14
E 67 250 6
E 68 248 14
E 69 70 1
E 69 174 16
E 69 178 7
E 69 189 7
E 70 71 14
E 70 176 16
E 70 190 7
E 71 72 1
E 71 180 16
E 71 199 7
E 72 182 16
E 72 200 7
E 72 201 7
E 73 74 1
E 73 163 14
E 73 166 7
E 73 174 7
E 74 75 14
E 74 164 14
E 74 176 7
E 75 76 1
E 75 171 14
E 75 180 7
E 76 172 14
E 76 182 7
E 76 183 7
E 77 78 1
E 77 161 7
E 78 79 14
E 78 162 7
E 79 80 1
E 79 167 7
E 80 169 7
E 81 82 2
E 81 241 9
E 81 244 6
E 81 249 14
E 82 243 9
E 82 247 6
E 82 250 14
E 83 84 1
E 83 87 23
E 83 118 7
E 84 85 14
E 84 88 23
E 85 86 1
E 85 89 23
E 86 90 23
E 87 88 1
E 87 122 7
E 87 230 14
E 88 89 14
E 88 232 14
E 89 90 1
E 89 238 14
E 90 240 14
E 91 92 1
E 91 95 23
E 91 126 7
E 91 230 9
E 92 93 14
E 92 96 23
E 92 232 9
E 93 94 1
E 93 97 23
E 93 238 9
E 94 98 23
E 94 237 7
E 94 240 9
E 95 96 1
E 95 99 23
E 95 130 7
E 96 97 14
E 96 100 23
E 97 98 1
E 97 101 23
E 98 102 23
E 98 223 7
E 99 100 1
E 99 103 23
E 99 134 7
E 100 101 14
E 100 104 23
E 101 102 1
E 101 105 23
E 102 106 23
E 102 207 7
E 103 104 1
E 103 138 7
E 103 168 7
E 104 105 14
E 104 170 7
E 105 106 1
E 105 177 7
E 106 178 7
E 106 189 7
E 107 108 1
E 107 142 7
E 107 158 7
E 107 168 16
E 108 109 14
E 108 160 7
E 108 170 16
E 109 110 1
E 109 165 7
E 109 177 16
E 110 166 7
E 110 174 7
E 110 178 16
E 111 112 1
E 111 154 7
E 111 155 2
E 111 158 14
E 112 113 14
E 112 156 2
E 112 160 14
E 113 114 1
E 113 157 2
E 113 165 14
E 114 159 2
E 114 163 7
E 114 166 14
E 115 116 1
E 115 119 23
E 116 117 14
E 116 120 23
E 117 118 1
E 117 121 23
E 118 122 23
E 119 120 1
E 119 123 23
E 120 121 14
E 120 124 23
E 121 122 1
E 121 225 14
E 122 228 14
E 123 124 1
E 123 203 4
E 124 125 14
E 124 204 4
E 125 126 1
E 125 215 4
E 125 225 9
E 126 216 4
E 126 228 9
E 127 128 1
E 127 181 7
E 127 185 4
E 127 203 19
E 128 129 14
E 128 187 4
E 128 204 19
E 129 130 1
E 129 195 4
E 129 215 19
E 130 197 4
E 130 216 19
E 131 132 1
E 131 135 23
E 131 185 19
E 132 133 14
E 132 136 23
E 132 187 19
E 133 134 1
E 133 137 23
E 133 195 19
E 134 138 23
E 134 197 19
E 135 136 1
E 135 139 23
E 136 137 14
E 136 140 23
E 137 138 1
E 137 141 23
E 138 142 23
E 139 140 1
E 139 151 21
E 140 141 14
E 140 152 21
E 141 142 1
E 141 153 21
E 142 154 21
E 143 144 1
E 143 151 2
E 144 145 14
E 144 152 2
E 145 146 1
E 145 153 2
E 146 154 2
E 146 155 7
E 147 148 1
E 147 173 19
E 148 149 14
E 148 175 19
E 149 150 1
E 149 179 19
E 150 181 19
E 150 203 7
E 151 152 1
E 152 153 14
E 153 154 1
E 155 156 1
E 156 157 14
E 157 159 1
E 158 160 1
E 159 161 7
E 160 165 14
E 161 162 1
E 161 163 2
E 162 164 2
E 162 167 14
E 163 164 1
E 164 171 14
E 165 166 1
E 167 169 1
E 167 171 2
E 168 170 1
E 169 172 2
E 170 177 14
E 171 172 1
E 173 175 1
E 174 176 1
E 175 179 14
E 176 180 14
E 177 178 1
E 179 181 1
E 180 182 1
E 183 184 1
E 183 186 3
E 184 188 3
E 184 192 14
E 185 187 1
E 186 188 1
E 187 195 14
E 188 196 14
E 189 190 1
E 189 207 23
E 190 191 6
E 190 209 23
E 191 193 2
E 191 211 23
E 192 194 1
E 192 196 3
E 193 199 6
E 193 213 23
E 194 198 3
E 195 197 1
E 196 198 1
E 199 200 1
E 199 219 23
E 200 221 23
E 201 202 1
E 201 205 5
E 202 206 5
E 202 212 14
E 203 204 1
E 204 215 14
E 205 206 1
E 206 217 14
E 207 209 1
E 207 223 23
E 208 210 1
E 209 211 6
E 209 226 23
E 210 220 14
E 211 213 2
E 211 229 23
E 212 214 1
E 212 217 5
E 213 219 6
E 213 231 23
E 214 218 5
E 215 216 1
E 217 218 1
E 219 221 1
E 219 233 23
E 220 222 1
E 221 235 23
E 223 226 1
E 223 237 23
E 224 227 1
E 225 228 1
E 226 229 6
E 226 239 23
E 227 234 14
E 228 230 7
E 229 231 2
E 229 241 23
E 230 232 1
E 231 233 6
E 231 243 23
E 232 238 14
E 233 235 1
E 233 245 23
E 234 236 1
E 235 246 23
E 237 239 1
E 237 242 9
E 238 240 1
E 239 241 6
E 239 244 9
E 240 242 7
E 241 243 2
E 242 244 1
E 243 245 6
E 245 246 1
E 245 247 9
E 246 248 9
E 247 248 1
E 248 251 7
E 249 250 2
E 251 252 1
E 252 253 14
E 253 254 1
E 254 255 7
E 255 256 1
E 1 257 100000
E 2 257 100000
E 3 257 100000
E 4 257 100000
E 5 258 100000
E 6 258 100000
E 7 258 100000
E 8 258 100000
E 9 259 100000
E 10 259 100000
E 11 259 100000
E 12 259 100000
E 13 260 100000
E 14 260 100000
E 15 260 100000
E 16 260 100000
E 17 261 100000
E 18 261 100000
E 19 261 100000
E 20 261 100000
E 21 262 100000
E 22 262 100000
E 23 262 100000
E 24 262 100000
E 25 263 100000
E 26 263 100000
E 27 263 100000
E 28 263 100000
E 29 264 100000
E 30 264 100000
E 31 264 100000
E 32 264 100000
E 33 265 100000
E 34 265 100000
E 35 265 100000
E 36 265 100000
E 37 266 100000
E 38 266 100000
E 39 266 100000
E 40 266 100000
E 41 267 100000
E 42 267 100000
E 43 267 100000
E 44 267 100000
E 45 268 100000
E 46 268 100000
E 47 268 100000
E 48 268 100000
E 49 269 100000
E 50 269 100000
E 51 269 100000
E 52 269 100000
E 53 270 100000
E 54 270 100000
E 55 270 100000
E 56 270 100000
E 57 271 100000
E 58 271 100000
E 59 271 100000
E 60 271 100000
E 61 272 100000
E 62 272 100000
E 63 272 100000
E 64 272 100000
E 65 273 100000
E 66 273 100000
E 67 273 100000
E 68 273 100000
E 69 274 100000
E 70 274 100000
E 71 274 100000
E 72 274 100000
E 73 275 100000
E 74 275 100000
E 75 275 100000
E 76 275 100000
E 77 276 100000
E 78 276 100000
E 79 276 100000
E 80 276 100000
E 81 277 100000
E 82 277 100000
E 83 278 100000
E 84 278 100000
E 85 278 100000
E 86 278 100000
E 87 279 100000
E 88 279 100000
E 89 279 100000
E 90 279 100000
E 91 280 100000
E 92 280 100000
E 93 280 100000
E 94 280 100000
E 95 281 100000
E 96 281 100000
E 97 281 100000
E 98 281 100000
E 99 282 100000
E 100 282 100000
E 101 282 100000
E 102 282 100000
E 103 283 100000
E 104 283 100000
E 105 283 100000
E 106 283 100000
E 107 284 100000
E 108 284 100000
E 109 284 100000
E 110 284 100000
E 111 285 100000
E 112 285 100000
E 113 285 100000
E 114 285 100000
E 115 286 100000
E 116 286 100000
E 117 286 100000
E 118 286 100000
E 119 287 100000
E 120 287 100000
E 121 287 100000
E 122 287 100000
E 123 288 100000
E 124 288 100000
E 125 288 100000
E 126 288 100000
E 127 289 100000
E 128 289 100000
E 129 289 100000
E 130 289 100000
E 131 290 100000
E 132 290 100000
E 133 290 100000
E 134 290 100000
E 135 291 100000
E 136 291 100000
E 137 291 100000
E 138 291 100000
E 139 292 100000
E 140 292 100000
E 141 292 100000
E 142 292 100000
E 143 293 100000
E 144 293 100000
E 145 293 100000
E 146 293 100000
E 147 294 100000
E 148 294 100000
E 149 294 100000
E 150 294 100000
END

SECTION Terminals
Terminals 38
T 257
T 258
T 259
T 260
T 261
T 262
T 263
T 264
T 265
T 266
T 267
T 268
T 269
T 270
T 271
T 272
T 273
T 274
T 275
T 276
T 277
T 278
T 279
T 280
T 281
T 282
T 283
T 284
T 285
T 286
T 287
T 288
T 289
T 290
T 291
T 292
T 293
T 294
END

SECTION Tree Decomposition
c We do not guarantee that this tree decomposition has minimum width.
s td 246 19 294
b 1 277 81 82
b 2 28 27 263 222
b 3 115 116 286 119
b 4 32 31 264 36
b 5 143 293 144 151
b 6 147 173 148 294
b 7 2 3 256 257
b 8 60 59 271 194
b 9 4 3 257 12
b 10 5 6 258 173
b 11 77 276 78 161
b 12 80 276 79 169
b 13 1 257 255 36
b 14 155 146 111 156
b 15 157 159 113 156
b 16 158 160 107 111
b 17 168 170 103 107
b 18 172 171 76 169
b 19 186 188 183 53
b 20 191 193 211 190
b 21 197 130 195 134
b 22 205 49 206 201
b 23 214 218 212 56
b 24 216 215 126 130
b 25 225 121 125 228
b 26 236 24 234 20
b 27 249 250 81 66
b 28 283 104 105 103 106
b 29 267 42 41 43 44
b 30 6 258 7 175 173
b 31 258 7 175 173 8
b 32 7 175 173 179 8
b 33 175 173 148 179 8
b 34 173 148 294 179 8
b 35 148 149 294 179 8
b 36 149 294 179 8 150
b 37 179 8 181 150
b 38 8 181 150 185
b 39 181 150 127 185
b 40 150 203 127 185
b 41 260 15 16 14 13
b 42 293 144 145 151 146
b 43 144 145 152 151 146
b 44 145 152 151 153 146
b 45 31 264 30 35 36
b 46 264 30 35 29 36
b 47 30 34 35 29 36
b 48 116 286 117 119 120
b 49 286 117 119 120 118
b 50 117 119 120 118 121
b 51 291 138 135 136 137
b 52 261 18 19 20 17
b 53 3 256 257 12 11
b 54 152 151 153 140 146
b 55 151 153 139 140 146
b 56 281 96 97 95 98
b 57 259 12 10 11 9
b 58 280 93 92 91 94
b 59 59 271 58 192 194
b 60 271 58 192 194 57
b 61 58 192 194 184 57
b 62 274 70 72 71 69
b 63 276 78 79 169 161
b 64 78 79 162 169 161
b 65 79 167 162 169 161
b 66 167 162 171 169 161
b 67 162 171 164 169 161
b 68 192 194 184 57 196
b 69 194 184 57 196 198
b 70 272 62 63 64 61
b 71 287 119 120 121 122
b 72 27 263 26 220 222
b 73 263 26 220 222 25
b 74 26 220 222 210 25
b 75 289 129 127 130 128
b 76 220 222 210 23 25
b 77 222 210 23 24 25
b 78 268 47 48 46 45
b 79 62 63 64 66 61
b 80 63 64 66 67 61
b 81 269 50 49 51 52
b 82 265 34 35 33 36
b 83 288 125 124 123 126
b 84 266 39 40 37 38
b 85 270 55 54 56 53
b 86 262 22 23 24 21
b 87 275 74 75 76 73
b 88 282 102 99 100 101
b 89 279 89 88 87 90
b 90 290 133 131 132 134
b 91 284 108 109 107 110
b 92 278 84 85 86 83
b 93 292 141 139 140 142
b 94 285 112 113 111 114
b 95 84 85 86 88 83
b 96 85 86 89 88 83
b 97 250 81 82 66 67
b 98 159 113 114 156 161
b 99 193 213 199 211 190
b 100 273 68 65 66 67
b 101 112 113 160 111 114 156
b 102 119 120 118 121 122 123
b 103 120 118 121 122 124 123
b 104 34 35 29 252 33 36
b 105 35 29 252 33 36 253
b 106 118 121 122 124 123 83
b 107 29 252 64 33 36 253
b 108 184 57 196 188 183 198
b 109 57 196 188 183 198 169
b 110 196 188 183 55 198 169
b 111 203 123 204 127 185
b 112 22 210 23 24 227 21
b 113 86 89 88 83 61 90
b 114 108 160 109 170 107 110
b 115 256 257 255 12 10 11
b 116 257 255 12 10 11 36
b 117 141 153 139 140 142 137
b 118 129 127 215 130 128 195
b 119 171 164 75 76 169 161
b 120 188 183 55 54 198 53 169
b 121 183 55 54 198 53 76 169
b 122 121 122 125 124 228 123 83
b 123 122 125 124 228 123 83 87
b 124 255 12 10 11 9 254 36
b 125 153 139 140 154 146 142 137
b 126 139 140 154 146 142 135 137
b 127 140 154 146 142 135 136 137
b 128 154 146 142 135 136 137 111
b 129 146 142 135 136 137 111 156
b 130 210 23 24 25 208 227 21
b 131 23 24 234 25 208 227 21
b 132 24 234 25 208 20 227 21
b 133 234 25 208 19 20 227 21
b 134 25 208 19 20 227 21 198
b 135 208 19 20 227 21 56 198
b 136 12 10 11 9 254 16 36
b 137 10 11 9 254 16 14 36
b 138 11 9 254 15 16 14 36
b 139 165 166 113 160 109
b 140 244 81 239 66 242
b 141 189 190 69 106 207
b 142 229 241 226 211 231
b 143 180 182 75 176 71
b 144 247 82 245 67 248
b 145 174 176 69 73 110
b 146 246 245 248 37 235
b 147 178 177 69 106 110
b 148 251 252 33 248 37
b 149 243 82 241 231 245
b 150 240 238 90 94 242
b 151 163 164 73 114 161
b 152 237 223 239 94 242
b 153 187 132 185 128 195
b 154 232 88 92 238 230
b 155 233 219 231 245 235
b 156 217 218 212 206 51
b 157 221 219 45 235 200
b 158 224 227 17 21 52
b 159 209 226 211 190 207
b 160 202 54 212 206 201
b 161 104 105 170 100 103 106
b 162 133 131 132 137 195 134
b 163 213 199 219 211 231 190
b 164 50 49 46 206 51 52
b 165 89 88 238 83 87 61 90
b 166 105 170 177 100 101 103 106
b 167 131 132 135 137 185 195 134
b 168 18 14 19 20 227 17
b 169 93 97 92 238 91 94
b 170 96 97 92 95 98 100
b 171 42 41 43 44 46 38
b 172 74 164 75 176 76 73
b 173 39 40 43 37 38 253
b 174 70 176 72 71 190 69
b 175 47 48 43 46 51 45
b 176 132 135 136 137 185 128 195 134
b 177 88 92 238 83 87 230 61 90
b 178 125 124 228 123 215 126 83 87
b 179 124 228 123 204 215 126 83 87
b 180 228 123 204 215 126 83 87 230
b 181 9 254 15 16 14 13 40 36
b 182 254 15 16 14 13 40 36 253
b 183 15 16 14 13 19 40 36 253
b 184 16 14 13 19 20 40 36 253
b 185 164 75 176 76 169 73 114 161
b 186 55 54 212 56 198 53 76 169
b 187 142 138 135 136 137 107 111 156
b 188 14 13 19 20 227 40 17 36 253
b 189 13 19 20 227 40 17 44 36 253
b 190 166 113 160 109 73 110 114
b 191 199 219 211 231 71 200 190
b 192 81 82 241 239 66 67 242
b 193 218 212 206 21 51 52 56
b 194 182 75 176 72 53 71 76
b 195 123 204 127 215 126 185 83 87 230
b 196 204 127 215 126 185 128 83 87 230
b 197 127 215 126 130 185 128 195 83 87 230
b 198 126 130 185 128 195 91 83 87 230
b 199 54 212 206 56 198 53 76 169 201
b 200 138 135 136 137 134 103 107 111 156
b 201 68 65 64 33 66 67 248
b 202 223 239 226 94 98 207 242
b 203 48 17 43 44 46 51 52 45
b 204 113 160 109 73 110 111 114 156 161
b 205 160 109 170 73 107 110 111 114 156 161
b 206 109 170 177 73 107 110 111 114 156 161
b 207 41 43 44 46 37 38 45 235
b 208 252 64 33 248 36 37 38 253
b 209 65 64 33 66 67 248 61 90 242
b 210 130 185 128 195 91 83 87 230 95 134
b 211 75 176 72 53 71 76 169 73 114 161
b 212 102 99 98 100 101 106 207
b 213 99 95 134 98 100 101 103 106 207
b 214 49 46 206 51 52 45 200 201
b 215 219 211 231 245 45 235 71 200 190
b 216 82 241 239 231 245 66 67 248 242
b 217 241 239 226 211 231 245 66 67 248 242
b 218 135 136 137 185 128 195 134 103 107 111 156
b 219 97 92 238 91 95 94 98 100 101
b 220 212 206 21 51 52 56 198 53 76 169 201
b 221 19 20 227 40 17 44 21 56 198 36 253
b 222 227 40 17 44 21 52 56 198 36 253
b 223 40 17 43 44 21 52 56 198 36 37 38 253
b 224 17 43 44 46 21 51 52 56 198 36 37 38 45 253
b 225 43 44 46 21 51 52 56 198 36 37 38 45 235 253
b 226 239 226 211 231 245 66 67 248 94 98 207 242
b 227 226 211 231 245 66 67 248 190 94 98 207 242
b 228 176 72 53 71 76 169 190 69 73 110 114 161
b 229 72 53 71 76 169 200 201 190 69 73 110 114 161
b 230 46 206 21 51 52 56 198 36 37 38 45 235 253 200 201
b 231 206 21 51 52 56 198 36 37 38 45 235 253 53 76 169 200 201
b 232 185 128 195 91 83 87 230 95 134 103 107 111 156
b 233 64 33 66 67 248 36 37 38 253 61 90 242
b 234 92 238 91 83 87 230 95 61 90 94 98 100 101
b 235 238 91 83 87 230 95 61 90 94 98 100 101 242
b 236 170 177 73 100 101 103 106 107 110 111 114 156 161
b 237 177 69 73 100 101 103 106 107 110 111 114 156 161
b 238 211 231 245 66 67 248 45 235 71 200 190 94 98 207 242
b 239 245 66 67 248 37 45 235 71 200 190 94 98 207 242
b 240 66 67 248 36 37 38 45 235 253 71 200 190 61 90 94 98 207 242
b 241 36 37 38 45 235 253 53 71 76 169 200 201 190 61 90 94 98 207 242
b 242 91 83 87 230 95 134 61 90 94 98 100 101 103 107 111 156 242
b 243 95 134 61 90 94 98 100 101 103 106 107 111 156 207 242
b 244 53 71 76 169 200 201 190 61 69 73 90 94 98 110 114 161 207 242
b 245 190 61 69 73 90 94 98 106 110 114 161 207 242
b 246 61 69 73 90 94 98 100 101 103 106 107 110 111 114 156 161 207 242
1 97
97 192
192 216
216 217
217 226
226 227
227 238
238 239
239 240
240 241
241 244
244 229
244 245
245 246
246 243
243 242
246 237
242 235
237 236
235 234
241 231
231 230
230 225
225 224
229 228
224 223
240 233
242 232
231 220
223 222
228 211
232 210
222 221
236 206
206 205
233 209
232 218
220 199
221 189
210 198
205 204
218 200
189 188
198 197
197 196
196 195
243 213
238 215
234 219
225 207
224 203
233 208
211 185
218 176
199 186
200 187
188 184
195 180
184 183
180 179
183 182
179 178
182 181
234 177
230 214
220 193
211 194
221 135
209 201
204 190
213 212
215 191
226 202
176 167
186 121
187 129
178 123
181 138
177 165
135 134
121 120
129 128
123 122
138 137
134 133
128 127
137 136
133 132
127 126
136 124
132 131
126 125
131 130
236 166
228 174
223 173
205 114
185 172
204 101
188 168
197 118
219 169
219 170
207 171
203 175
208 107
185 119
214 164
191 163
167 162
165 113
120 110
122 106
124 116
125 117
130 112
166 161
107 105
110 109
106 103
116 115
105 104
109 108
103 102
217 142
228 145
233 80
80 79
222 158
192 140
199 160
204 98
200 51
195 111
215 155
215 157
208 148
185 151
176 153
186 85
183 41
178 83
245 141
177 154
193 156
194 143
227 159
201 100
190 139
212 88
202 152
165 89
216 144
136 57
125 55
130 77
174 62
114 91
173 84
172 87
101 94
168 52
118 75
169 58
170 56
171 29
175 78
119 67
164 81
163 99
162 90
216 149
113 96
237 147
117 93
112 86
161 28
235 150
115 53
104 47
104 82
108 69
79 70
102 71
102 50
55 54
77 76
67 66
239 146
96 95
47 46
69 68
66 65
54 44
76 74
50 49
95 92
46 45
68 61
65 64
44 43
74 73
49 48
61 60
64 63
43 42
73 72
60 59
63 11
210 21
97 27
205 16
197 24
214 22
193 23
53 9
129 14
120 19
122 25
132 26
119 18
116 13
98 15
111 40
236 17
99 20
40 39
39 38
38 37
37 36
36 35
35 34
34 33
33 32
32 31
31 30
34 6
30 10
53 7
45 4
48 3
63 12
42 5
59 8
72 2
END

EOF
